\ENCODING=ISO-8859-1
\Problem name: 

Maximize
 obj: x1 + x2 + x3 + x4 + x5 + x6 + x7 + x8 + x9 + x10 + x11 + x12 + x13 + x14
      + x15 + x16 + x17 + x18 + x19 + x20 + x21 + x22 + x23 + x24 + x25 + x26
      + x27 + x28 + x29 + x30 + x31 + x32 + x33 + x34 + x35 + x36 + x37 + x38
      + x39 + x40 + x41 + x42 + x43 + x44 + x45 + x46 + x47 + x48 + x49 + x50
      + x51 + x52 + x53 + x54 + x55 + x56 + x57 + x58 + x59 + x60 + x61 + x62
      + x63 + x64 + x65 + x66 + x67 + x68 + x69 + x70 + x71 + x72 + x73 + x74
      + x75 + x76 + x77 + x78 + x79 + x80 + x81 + x82 + x83 + x84 + x85 + x86
      + x87 + x88 + x89 + x90 + x91 + x92 + x93 + x94 + x95 + x96 + x97 + x98
      + x99 + x100 + x101 + x102 + x103 + x104 + x105 + x106 + x107 + x108
      + x109 + x110 + x111 + x112 + x113 + x114 + x115 + x116 + x117 + x118
      + x119 + x120 + x121 + x122 + x123 + x124 + x125 + x126 + x127 + x128
      + x129 + x130 + x131 + x132 + x133 + x134 + x135 + x136 + x137 + x138
      + x139 + x140 + x141 + x142 + x143 + x144 + x145 + x146 + x147 + x148
      + x149 + x150
Subject To
 clq1:   x24 + x40 + x55 + x123 <= 1
 clq2:   x5 + x72 + x146 <= 1
 clq3:   x30 + x40 + x133 <= 1
 clq4:   x12 + x36 + x62 <= 1
 clq5:   x50 + x76 + x87 <= 1
 clq6:   x40 + x51 + x141 <= 1
 clq7:   x27 + x31 + x82 + x106 <= 1
 clq8:   x44 + x80 + x146 <= 1
 clq9:   x21 + x57 + x141 <= 1
 clq10:  x21 + x80 + x81 <= 1
 clq11:  x66 + x98 + x113 <= 1
 clq12:  x9 + x25 + x66 + x136 <= 1
 clq13:  x38 + x56 + x117 + x149 <= 1
 clq14:  x61 + x102 + x111 + x143 <= 1
 clq15:  x37 + x125 + x126 <= 1
 clq16:  x97 + x106 + x134 + x148 <= 1
 clq17:  x34 + x102 + x148 <= 1
 clq18:  x72 + x82 + x96 <= 1
 clq19:  x32 + x128 + x129 <= 1
 clq20:  x18 + x45 + x65 + x69 <= 1
 clq21:  x50 + x57 + x111 + x141 <= 1
 clq22:  x72 + x100 + x145 <= 1
 clq23:  x47 + x59 + x78 + x138 <= 1
 clq24:  x92 + x137 + x148 <= 1
 clq25:  x24 + x32 + x120 <= 1
 clq26:  x35 + x115 + x128 + x140 <= 1
 clq27:  x45 + x67 + x86 + x137 <= 1
 clq28:  x16 + x63 + x88 + x100 <= 1
 clq29:  x29 + x98 + x107 + x136 <= 1
 clq30:  x40 + x51 + x149 <= 1
 clq31:  x20 + x53 + x76 + x83 <= 1
 clq32:  x44 + x75 + x124 + x146 <= 1
 clq33:  x6 + x53 + x63 + x68 <= 1
 clq34:  x46 + x47 + x77 <= 1
 clq35:  x105 + x107 + x111 <= 1
 clq36:  x5 + x139 + x148 <= 1
 clq37:  x21 + x44 + x52 + x61 <= 1
 clq38:  x5 + x8 + x85 <= 1
 clq39:  x10 + x18 + x20 + x27 <= 1
 clq40:  x35 + x39 + x59 + x88 <= 1
 clq41:  x49 + x101 + x140 <= 1
 clq42:  x54 + x138 <= 1
 clq43:  x25 + x84 + x128 <= 1
 clq44:  x13 + x22 + x23 + x122 <= 1
 clq45:  x27 + x36 + x82 + x96 <= 1
 clq46:  x61 + x103 + x142 <= 1
 clq47:  x25 + x47 + x49 + x120 <= 1
 clq48:  x18 + x37 + x133 <= 1
 clq49:  x76 + x84 + x128 + x142 <= 1
 clq50:  x108 + x144 + x146 <= 1
 clq51:  x7 + x80 + x96 + x123 <= 1
 clq52:  x35 + x64 + x119 + x135 <= 1
 clq53:  x7 + x123 + x138 <= 1
 clq54:  x61 + x64 + x100 + x119 + x135 <= 1
 clq55:  x13 + x64 + x74 <= 1
 clq56:  x24 + x42 + x107 <= 1
 clq57:  x29 + x60 + x98 <= 1
 clq58:  x33 + x69 + x138 <= 1
 clq59:  x10 + x92 + x127 <= 1
 clq60:  x44 + x68 + x126 <= 1
 clq61:  x52 + x68 + x140 <= 1
 clq62:  x51 + x86 + x92 <= 1
 clq63:  x4 + x31 + x101 <= 1
 clq64:  x44 + x52 + x68 + x121 <= 1
 clq65:  x70 + x92 + x110 <= 1
 clq66:  x26 + x61 + x90 + x110 <= 1
 clq67:  x62 + x99 + x103 <= 1
 clq68:  x53 + x77 + x119 <= 1
 clq69:  x57 + x102 + x111 + x134 <= 1
 clq70:  x84 + x112 + x130 <= 1
 clq71:  x39 + x81 + x134 <= 1
 clq72:  x21 + x60 + x133 <= 1
 clq73:  x71 + x88 + x128 <= 1
 clq74:  x78 + x84 + x142 <= 1
 clq75:  x27 + x96 + x100 + x122 <= 1
 clq76:  x51 + x61 + x136 + x142 <= 1
 clq77:  x61 + x100 + x120 + x135 <= 1
 clq78:  x59 + x113 + x114 <= 1
 clq79:  x2 + x116 + x134 + x150 <= 1
 clq80:  x8 + x20 + x39 + x85 <= 1
 clq81:  x91 + x131 + x134 <= 1
 clq82:  x29 + x81 + x106 + x121 <= 1
 clq83:  x41 + x59 + x106 + x117 <= 1
 clq84:  x40 + x93 + x116 <= 1
 clq85:  x43 + x75 + x135 + x148 <= 1
 clq86:  x40 + x94 + x130 + x140 <= 1
 clq87:  x7 + x17 + x80 + x114 <= 1
 clq88:  x3 + x35 + x90 <= 1
 clq89:  x104 + x125 + x134 + x140 <= 1
 clq90:  x15 + x57 + x98 <= 1
 clq91:  x115 + x125 + x140 <= 1
 clq92:  x1 + x33 + x87 + x102 <= 1
 clq93:  x44 + x86 + x88 + x92 <= 1
 clq94:  x27 + x40 + x106 + x141 <= 1
 clq95:  x12 + x150 <= 1
 clq96:  x3 + x29 + x38 + x65 <= 1
 clq97:  x5 + x13 + x74 + x122 <= 1
 clq98:  x14 + x24 + x113 + x146 <= 1
 clq99:  x35 + x127 + x135 <= 1
 clq100: x2 + x4 + x113 <= 1
 clq101: x24 + x51 + x130 + x131 + x140 <= 1
 clq102: x36 + x38 + x73 <= 1
 clq103: x4 + x35 + x88 + x109 <= 1
 clq104: x2 + x48 + x64 + x74 <= 1
 clq105: x1 + x89 + x104 <= 1
 clq106: x47 + x72 + x146 <= 1
 clq107: x26 + x52 + x61 <= 1
 clq108: x81 + x117 + x134 + x140 <= 1
 clq109: x23 + x90 + x103 <= 1
 clq110: x16 + x59 + x93 + x95 <= 1
 clq111: x32 + x120 + x144 <= 1
 clq112: x13 + x15 + x57 <= 1
 clq113: x14 + x91 + x98 + x129 <= 1
 clq114: x7 + x40 + x123 + x149 <= 1
 clq115: x49 + x120 + x130 <= 1
 clq116: x20 + x51 + x142 <= 1
 clq117: x47 + x125 + x146 <= 1
 clq118: x30 + x137 + x147 <= 1
 clq119: x55 + x86 + x87 + x103 <= 1
 clq120: x40 + x67 + x106 <= 1
 clq121: x20 + x33 + x87 <= 1
 clq122: x35 + x97 + x106 + x126 <= 1
 clq123: x31 + x40 + x115 + x140 <= 1
 clq124: x33 + x58 + x120 + x132 <= 1
 clq125: x49 + x56 + x101 <= 1
 clq126: x52 + x125 + x140 <= 1
 clq127: x33 + x77 + x93 + x132 <= 1
 clq128: x26 + x49 + x82 + x104 <= 1
 clq129: x36 + x38 + x84 <= 1
 clq130: x33 + x49 + x120 <= 1
 clq131: x53 + x68 + x83 + x86 + x104 <= 1
 clq132: x58 + x95 + x126 <= 1
 clq133: x53 + x63 + x68 + x86 <= 1
 clq134: x132 + x136 + x142 <= 1
 clq135: x10 + x112 + x127 <= 1
 clq136: x28 + x40 + x60 <= 1
 clq137: x58 + x89 + x90 <= 1
 clq138: x30 + x40 + x55 + x111 <= 1
 clq139: x16 + x56 + x110 + x117 <= 1
 clq140: x2 + x6 + x7 + x25 <= 1
 clq141: x79 + x105 + x146 <= 1
 clq142: x46 + x62 + x76 <= 1
 clq143: x4 + x47 + x85 <= 1
 clq144: x26 + x81 + x93 + x135 <= 1
 clq145: x62 + x74 + x110 <= 1
 clq146: x45 + x90 + x107 + x110 <= 1
 clq147: x6 + x68 + x99 <= 1
 clq148: x33 + x75 + x87 + x102 <= 1
 clq149: x100 + x103 + x145 <= 1
 clq150: x44 + x64 + x65 <= 1
 clq151: x30 + x34 + x82 + x104 <= 1
 clq152: x104 + x122 + x150 <= 1
 clq153: x9 + x19 + x65 + x104 <= 1
 clq154: x7 + x80 + x107 + x114 <= 1
 clq155: x83 + x86 + x104 + x120 <= 1
 clq156: x51 + x83 + x105 + x118 + x130 <= 1
 clq157: x16 + x56 + x77 + x110 <= 1
 clq158: x37 + x54 + x98 <= 1
 clq159: x49 + x62 + x110 <= 1
 clq160: x33 + x75 + x120 + x124 <= 1
 clq161: x5 + x14 + x74 + x140 <= 1
 clq162: x6 + x55 + x80 + x123 <= 1
 clq163: x26 + x46 + x79 <= 1
 clq164: x105 + x115 + x128 <= 1
 clq165: x25 + x55 + x62 <= 1
 clq166: x5 + x56 + x60 <= 1
 clq167: x112 + x140 + x147 <= 1
 clq168: x20 + x113 + x133 <= 1
 clq169: x45 + x75 + x77 + x110 <= 1
 clq170: x24 + x40 + x51 + x130 + x140 <= 1
 clq171: x35 + x53 + x119 <= 1
 clq172: x49 + x77 + x82 + x110 <= 1
 clq173: x1 + x108 + x150 <= 1
 clq174: x68 + x117 + x126 <= 1
 clq175: x14 + x24 + x37 + x146 <= 1
 clq176: x28 + x80 + x103 <= 1
 clq177: x80 + x85 + x96 + x123 <= 1
 clq178: x38 + x40 + x133 <= 1
 clq179: x7 + x95 + x138 <= 1
 clq180: x8 + x114 + x129 + x132 <= 1
 clq181: x9 + x19 + x25 + x65 + x99 <= 1
 clq182: x29 + x32 + x72 + x118 <= 1
 clq183: x88 + x92 + x122 <= 1
 clq184: x67 + x72 + x130 <= 1
 clq185: x81 + x106 + x117 + x134 <= 1
 clq186: x16 + x83 + x118 + x144 <= 1
 clq187: x5 + x8 + x89 + x110 <= 1
 clq188: x46 + x68 + x77 + x86 <= 1
 clq189: x18 + x60 + x90 <= 1
 clq190: x7 + x76 + x83 + x124 <= 1
 clq191: x39 + x43 + x116 <= 1
 clq192: x36 + x47 + x115 + x129 <= 1
 clq193: x25 + x72 + x93 + x128 <= 1
 clq194: x21 + x33 + x73 <= 1
 clq195: x45 + x47 + x77 <= 1
 clq196: x42 + x48 + x95 <= 1
 clq197: x6 + x39 + x68 + x84 <= 1
 clq198: x58 + x128 + x137 <= 1
 clq199: x27 + x42 + x95 + x136 <= 1
 clq200: x46 + x61 + x85 <= 1
 clq201: x5 + x35 + x122 <= 1
 clq202: x1 + x83 + x120 + x124 + x141 <= 1
 clq203: x14 + x21 + x24 <= 1
 clq204: x15 + x66 + x67 <= 1
 clq205: x15 + x67 + x89 <= 1
 clq206: x47 + x85 + x106 + x136 <= 1
 clq207: x34 + x60 + x80 <= 1
 clq208: x128 + x129 + x142 <= 1
 clq209: x2 + x58 + x119 + x150 <= 1
 clq210: x51 + x73 + x140 <= 1
 clq211: x97 + x114 + x129 <= 1
 clq212: x38 + x40 + x46 <= 1
 clq213: x45 + x77 + x93 <= 1
 clq214: x15 + x116 + x147 <= 1
 clq215: x52 + x56 + x129 <= 1
 clq216: x19 + x45 + x47 + x69 <= 1
 clq217: x6 + x16 + x47 + x63 <= 1
 clq218: x2 + x4 + x31 + x84 <= 1
 clq219: x11 + x34 + x129 <= 1
 clq220: x35 + x36 + x70 <= 1
 clq221: x25 + x72 + x75 + x145 <= 1
 clq222: x29 + x32 + x89 <= 1
 clq223: x8 + x109 + x114 <= 1
 clq224: x63 + x75 + x87 <= 1
 clq225: x99 + x107 + x111 + x136 <= 1
 clq226: x29 + x34 + x45 + x48 <= 1
 clq227: x31 + x106 + x135 + x148 <= 1
 clq228: x8 + x80 + x85 + x114 <= 1
 clq229: x30 + x99 + x137 <= 1
 clq230: x24 + x95 + x102 + x148 <= 1
 clq231: x24 + x113 + x131 + x146 <= 1
 clq232: x67 + x86 + x138 <= 1
 clq233: x66 + x102 + x118 <= 1
 clq234: x33 + x40 + x93 <= 1
 clq235: x43 + x49 + x135 + x148 <= 1
 clq236: x10 + x11 + x112 + x138 <= 1
 clq237: x100 + x119 + x121 + x138 <= 1
 clq238: x8 + x27 + x36 <= 1
 clq239: x12 + x59 + x120 + x142 <= 1
 clq240: x21 + x31 + x44 + x80 <= 1
 clq241: x12 + x42 + x67 + x72 <= 1
 clq242: x24 + x45 + x127 <= 1
 clq243: x33 + x69 + x75 <= 1
 clq244: x48 + x111 + x134 <= 1
 clq245: x22 + x73 + x118 + x146 <= 1
 clq246: x22 + x68 + x84 <= 1
 clq247: x63 + x123 + x125 <= 1
 clq248: x1 + x13 + x33 <= 1
 clq249: x22 + x46 + x98 <= 1
 clq250: x17 + x49 + x77 + x140 <= 1
 clq251: x2 + x48 + x134 <= 1
 clq252: x18 + x45 + x66 + x71 <= 1
 clq253: x6 + x33 + x58 <= 1
 clq254: x16 + x93 + x128 + x135 <= 1
 clq255: x26 + x90 + x93 <= 1
 clq256: x21 + x116 + x143 <= 1
 clq257: x30 + x36 + x129 <= 1
 clq258: x49 + x57 + x104 + x120 <= 1
 clq259: x6 + x57 + x63 + x68 <= 1
 clq260: x9 + x91 + x102 + x107 <= 1
 clq261: x66 + x101 + x119 + x135 <= 1
 clq262: x60 + x95 + x100 + x127 <= 1
 clq263: x4 + x98 + x107 + x111 <= 1
 clq264: x47 + x58 + x119 <= 1
 clq265: x67 + x76 + x101 + x128 <= 1
 clq266: x33 + x102 + x112 <= 1
 clq267: x23 + x57 + x89 <= 1
 clq268: x80 + x115 + x139 <= 1
 clq269: x42 + x67 + x76 <= 1
 clq270: x49 + x71 <= 1
 clq271: x37 + x100 + x129 + x148 <= 1
 clq272: x34 + x90 + x103 <= 1
 clq273: x16 + x83 + x104 + x118 <= 1
 clq274: x37 + x100 + x149 <= 1
 clq275: x27 + x40 + x94 <= 1
 clq276: x25 + x52 + x65 + x99 <= 1
 clq277: x56 + x70 + x74 + x110 <= 1
 clq278: x11 + x70 + x129 <= 1
 clq279: x64 + x71 + x99 <= 1
 clq280: x13 + x66 + x69 + x109 <= 1
 clq281: x72 + x91 + x93 <= 1
 clq282: x24 + x45 + x77 + x88 <= 1
 clq283: x58 + x64 + x108 + x132 <= 1
 clq284: x3 + x29 + x72 + x118 <= 1
 clq285: x39 + x86 + x146 <= 1
 clq286: x42 + x127 + x135 <= 1
 clq287: x57 + x59 + x93 + x111 <= 1
 clq288: x12 + x67 + x112 + x137 <= 1
 clq289: x2 + x25 + x49 <= 1
 clq290: x54 + x55 + x98 <= 1
 clq291: x58 + x90 + x107 + x137 <= 1
 clq292: x22 + x63 + x78 + x143 <= 1
 clq293: x14 + x41 + x58 + x99 <= 1
 clq294: x112 + x119 + x138 <= 1
 clq295: x12 + x89 + x129 <= 1
 clq296: x21 + x95 + x126 <= 1
 clq297: x8 + x15 + x48 <= 1
 clq298: x24 + x68 + x102 <= 1
 clq299: x17 + x22 + x45 <= 1
 clq300: x28 + x52 + x145 <= 1
 clq301: x9 + x58 + x99 + x107 + x137 <= 1
 clq302: x34 + x82 + x102 + x104 <= 1
 clq303: x76 + x77 + x128 + x140 <= 1
 clq304: x7 + x73 + x80 + x123 <= 1
 clq305: x67 + x72 + x74 + x145 <= 1
 clq306: x35 + x39 + x122 + x126 <= 1
 clq307: x9 + x58 + x104 + x150 <= 1
 clq308: x10 + x60 + x118 + x144 <= 1
 clq309: x62 + x139 + x149 <= 1
 clq310: x5 + x18 + x60 + x96 <= 1
 clq311: x7 + x10 + x110 + x125 <= 1
 clq312: x57 + x59 + x138 + x148 <= 1
 clq313: x21 + x33 + x44 + x56 <= 1
 clq314: x79 + x83 + x97 + x130 <= 1
 clq315: x83 + x120 + x135 <= 1
 clq316: x58 + x128 + x136 <= 1
 clq317: x9 + x68 + x89 + x104 <= 1
 clq318: x14 + x78 + x113 <= 1
 clq319: x112 + x130 + x140 <= 1
 clq320: x37 + x100 + x133 <= 1
 clq321: x97 + x139 + x140 <= 1
 clq322: x8 + x85 + x130 <= 1
 clq323: x3 + x29 + x65 + x77 + x118 <= 1
 clq324: x20 + x101 + x109 + x111 <= 1
 clq325: x46 + x92 + x122 <= 1
 clq326: x4 + x74 + x107 + x110 <= 1
 clq327: x16 + x52 + x88 + x121 <= 1
 clq328: x21 + x128 + x133 <= 1
 clq329: x73 + x105 + x118 + x146 <= 1
 clq330: x32 + x102 + x118 <= 1
 clq331: x39 + x52 + x72 <= 1
 clq332: x31 + x32 + x37 <= 1
 clq333: x10 + x19 + x45 + x55 <= 1
 clq334: x15 + x16 + x135 <= 1
 clq335: x71 + x78 + x83 <= 1
 clq336: x13 + x23 + x53 + x76 <= 1
 clq337: x11 + x13 + x66 + x149 <= 1
 clq338: x24 + x45 + x65 + x130 <= 1
 clq339: x82 + x97 + x114 <= 1
 clq340: x80 + x103 + x150 <= 1
 clq341: x69 + x109 + x114 <= 1
 clq342: x50 + x87 + x108 <= 1
 clq343: x11 + x105 + x115 + x139 <= 1
 clq344: x42 + x78 + x95 + x127 <= 1
 clq345: x10 + x43 + x60 <= 1
 clq346: x50 + x108 + x122 <= 1
 clq347: x3 + x51 + x73 + x118 <= 1
 clq348: x27 + x95 + x100 + x139 + x148 <= 1
 clq349: x51 + x83 + x113 + x131 <= 1
 clq350: x30 + x34 + x111 + x129 <= 1
 clq351: x13 + x81 + x121 <= 1
 clq352: x2 + x5 + x8 + x89 <= 1
 clq353: x1 + x106 + x117 + x126 <= 1
 clq354: x18 + x45 + x65 + x133 <= 1
 clq355: x56 + x70 + x129 <= 1
 clq356: x11 + x65 + x70 + x130 <= 1
 clq357: x22 + x84 + x98 <= 1
 clq358: x1 + x47 + x106 + x145 <= 1
 clq359: x8 + x26 + x36 <= 1
 clq360: x9 + x48 + x144 <= 1
 clq361: x29 + x32 + x46 <= 1
 clq362: x9 + x26 + x82 + x127 <= 1
 clq363: x67 + x81 + x131 <= 1
 clq364: x2 + x7 + x27 <= 1
 clq365: x16 + x69 + x83 + x109 <= 1
 clq366: x1 + x104 + x145 <= 1
 clq367: x2 + x25 + x60 + x118 <= 1
 clq368: x28 + x95 + x113 <= 1
 clq369: x57 + x63 + x93 <= 1
 clq370: x61 + x63 + x92 + x143 <= 1
 clq371: x19 + x41 + x87 + x117 <= 1
 clq372: x28 + x75 + x124 <= 1
 clq373: x21 + x52 + x125 + x137 <= 1
 clq374: x3 + x90 + x98 <= 1
 clq375: x1 + x108 + x113 + x114 <= 1
 clq376: x41 + x57 + x102 <= 1
 clq377: x19 + x21 + x83 + x141 <= 1
 clq378: x63 + x79 + x131 + x150 <= 1
 clq379: x32 + x84 + x89 <= 1
 clq380: x9 + x42 + x107 + x136 <= 1
 clq381: x19 + x106 + x141 + x145 <= 1
 clq382: x4 + x93 + x101 + x113 <= 1
 clq383: x7 + x52 + x125 + x137 <= 1
 clq384: x44 + x68 + x142 <= 1
 clq385: x49 + x53 + x98 <= 1
 clq386: x29 + x34 + x45 + x55 <= 1
 clq387: x53 + x76 + x92 + x101 <= 1
 clq388: x46 + x56 + x77 <= 1
 clq389: x21 + x54 + x73 <= 1
 clq390: x19 + x112 + x119 <= 1
 clq391: x111 + x118 + x131 + x134 <= 1
 clq392: x60 + x76 + x120 + x124 + x144 <= 1
 clq393: x40 + x53 + x68 + x86 <= 1
 clq394: x54 + x76 + x83 <= 1
 clq395: x30 + x40 + x97 + x129 <= 1
 clq396: x35 + x49 + x123 <= 1
 clq397: x23 + x89 + x136 <= 1
 clq398: x21 + x43 + x83 + x105 <= 1
 clq399: x7 + x12 + x62 + x110 <= 1
 clq400: x34 + x110 + x131 <= 1
 clq401: x13 + x53 + x134 <= 1
 clq402: x34 + x49 + x82 + x110 + x120 <= 1
 clq403: x50 + x108 + x114 <= 1
 clq404: x44 + x64 + x80 <= 1
 clq405: x41 + x87 + x103 <= 1
 clq406: x83 + x85 + x124 + x130 <= 1
 clq407: x19 + x41 + x99 + x135 <= 1
 clq408: x9 + x13 + x144 <= 1
 clq409: x4 + x15 + x48 <= 1
 clq410: x2 + x58 + x74 + x145 <= 1
 clq411: x24 + x40 + x68 + x116 + x123 <= 1
 clq412: x15 + x57 + x145 <= 1
 clq413: x3 + x41 <= 1
 clq414: x37 + x53 + x78 + x83 <= 1
 clq415: x11 + x94 + x98 <= 1
 clq416: x58 + x74 + x95 + x140 <= 1
 clq417: x13 + x22 + x73 + x146 <= 1
 clq418: x25 + x88 + x128 + x136 <= 1
 clq419: x38 + x54 + x73 + x146 <= 1
 clq420: x4 + x10 + x88 + x100 <= 1
 clq421: x76 + x77 + x84 + x128 <= 1
 clq422: x100 + x103 + x123 + x132 <= 1
 clq423: x40 + x60 + x94 + x133 <= 1
 clq424: x62 + x69 + x99 <= 1
 clq425: x37 + x53 + x98 <= 1
 clq426: x11 + x13 + x66 + x70 <= 1
 clq427: x67 + x78 + x113 + x143 <= 1
 clq428: x9 + x19 + x32 + x117 <= 1
 clq429: x11 + x13 + x33 <= 1
 clq430: x49 + x92 + x143 <= 1
 clq431: x64 + x65 + x104 <= 1
 clq432: x57 + x68 + x101 <= 1
 clq433: x37 + x46 + x86 <= 1
 clq434: x1 + x37 + x126 <= 1
 clq435: x4 + x123 + x143 <= 1
 clq436: x59 + x75 + x89 <= 1
 clq437: x29 + x61 + x106 + x136 <= 1
 clq438: x40 + x93 + x113 <= 1
 clq439: x50 + x100 + x148 <= 1
 clq440: x23 + x31 + x135 <= 1
 clq441: x24 + x32 + x37 <= 1
 clq442: x86 + x103 + x150 <= 1
 clq443: x15 + x16 + x121 <= 1
 clq444: x1 + x5 + x89 + x110 <= 1
 clq445: x8 + x48 + x132 <= 1
 clq446: x52 + x99 + x111 <= 1
 clq447: x31 + x56 + x63 + x91 <= 1
 clq448: x7 + x20 + x137 <= 1
 clq449: x43 + x79 + x105 + x111 <= 1
 clq450: x80 + x94 + x103 <= 1
 clq451: x43 + x49 + x62 <= 1
 clq452: x33 + x56 + x58 + x132 <= 1
 clq453: x41 + x56 + x91 <= 1
 clq454: x29 + x34 + x48 + x144 <= 1
 clq455: x8 + x51 + x61 + x102 <= 1
 clq456: x75 + x135 + x145 + x148 <= 1
 clq457: x4 + x47 + x48 <= 1
 clq458: x44 + x57 + x68 <= 1
 clq459: x21 + x52 + x61 + x137 <= 1
 clq460: x88 + x100 + x134 <= 1
 clq461: x37 + x98 + x135 <= 1
 clq462: x20 + x39 + x63 <= 1
 clq463: x21 + x57 + x137 <= 1
 clq464: x14 + x41 + x91 + x99 <= 1
 clq465: x16 + x63 + x64 + x100 <= 1
 clq466: x2 + x89 + x116 + x123 + x134 <= 1
 clq467: x21 + x36 + x73 + x80 <= 1
 clq468: x11 + x33 + x65 <= 1
 clq469: x2 + x8 + x119 <= 1
 clq470: x41 + x67 + x102 <= 1
 clq471: x2 + x4 + x48 + x74 <= 1
 clq472: x22 + x41 + x44 <= 1
 clq473: x26 + x37 + x135 + x146 <= 1
 clq474: x10 + x88 + x100 + x121 <= 1
 clq475: x49 + x95 + x106 + x148 <= 1
 clq476: x7 + x30 + x67 + x137 <= 1
 clq477: x15 + x16 + x59 <= 1
 clq478: x58 + x79 + x99 <= 1
 clq479: x16 + x100 + x121 + x139 <= 1
 clq480: x7 + x30 + x67 + x143 <= 1
 clq481: x35 + x67 + x128 <= 1
 clq482: x86 + x137 + x147 <= 1
 clq483: x10 + x31 + x44 + x61 <= 1
 clq484: x4 + x77 + x88 + x122 <= 1
 clq485: x6 + x28 + x40 <= 1
 clq486: x76 + x83 + x94 + x120 <= 1
 clq487: x25 + x50 + x72 + x118 <= 1
 clq488: x26 + x79 + x119 <= 1
 clq489: x19 + x26 + x69 + x104 <= 1
 clq490: x11 + x52 + x112 <= 1
 clq491: x37 + x93 + x135 + x148 <= 1
 clq492: x53 + x119 + x124 <= 1
 clq493: x1 + x13 + x22 + x23 <= 1
 clq494: x7 + x73 + x98 + x123 <= 1
 clq495: x3 + x43 + x116 <= 1
 clq496: x6 + x16 + x25 + x47 <= 1
 clq497: x102 + x104 + x118 + x125 + x134 <= 1
 clq498: x74 + x93 + x95 <= 1
 clq499: x59 + x60 + x120 <= 1
 clq500: x55 + x70 + x80 <= 1
 clq501: x16 + x96 + x100 <= 1
 clq502: x32 + x84 + x128 <= 1
 clq503: x36 + x66 + x135 <= 1
 clq504: x19 + x41 + x69 + x83 <= 1
 clq505: x9 + x58 + x132 + x137 <= 1
 clq506: x21 + x73 + x105 + x150 <= 1
 clq507: x4 + x84 + x90 + x98 <= 1
 clq508: x1 + x5 + x83 + x108 <= 1
 clq509: x12 + x96 + x112 <= 1
 clq510: x18 + x67 + x94 <= 1
 clq511: x9 + x19 + x26 + x104 <= 1
 clq512: x2 + x76 + x145 <= 1
 clq513: x9 + x38 + x66 + x102 <= 1
 clq514: x23 + x31 + x45 + x71 <= 1
 clq515: x30 + x69 + x79 + x147 <= 1
 clq516: x29 + x45 + x55 + x62 <= 1
 clq517: x1 + x89 + x124 <= 1
 clq518: x90 + x117 + x137 <= 1
 clq519: x2 + x6 + x82 <= 1
 clq520: x11 + x131 + x139 + x149 <= 1
 clq521: x9 + x99 + x115 + x136 <= 1
 clq522: x60 + x70 + x96 + x100 <= 1
 clq523: x12 + x72 + x96 <= 1
 clq524: x51 + x119 + x131 <= 1
 clq525: x28 + x45 + x71 + x75 <= 1
 clq526: x2 + x7 + x76 + x83 <= 1
 clq527: x1 + x4 + x113 <= 1
 clq528: x23 + x103 + x132 <= 1
 clq529: x84 + x94 + x130 <= 1
 clq530: x6 + x33 + x40 <= 1
 clq531: x63 + x78 + x79 + x142 <= 1
 clq532: x24 + x95 + x100 + x127 <= 1
 clq533: x3 + x35 + x127 <= 1
 clq534: x50 + x108 + x148 <= 1
 clq535: x5 + x13 + x125 + x137 <= 1
 clq536: x76 + x91 + x123 <= 1
 clq537: x31 + x73 + x121 <= 1
 clq538: x62 + x108 + x132 <= 1
 clq539: x86 + x117 + x137 <= 1
 clq540: x20 + x57 + x137 <= 1
 clq541: x19 + x135 + x139 <= 1
 clq542: x91 + x107 + x131 + x137 <= 1
 clq543: x19 + x47 + x94 + x119 <= 1
 clq544: x68 + x89 + x116 + x123 <= 1
 clq545: x62 + x102 <= 1
 clq546: x7 + x25 + x143 + x149 <= 1
 clq547: x4 + x17 + x77 + x84 + x111 <= 1
 clq548: x2 + x48 + x147 <= 1
 clq549: x16 + x67 + x102 <= 1
 clq550: x32 + x37 + x74 <= 1
 clq551: x7 + x77 + x79 + x111 <= 1
 clq552: x17 + x142 + x147 <= 1
 clq553: x18 + x65 + x96 <= 1
 clq554: x87 + x95 + x138 <= 1
 clq555: x60 + x76 + x80 + x94 <= 1
 clq556: x27 + x42 + x98 + x136 <= 1
 clq557: x20 + x33 + x39 + x134 <= 1
 clq558: x23 + x53 + x86 + x103 <= 1
 clq559: x20 + x28 + x101 + x113 <= 1
 clq560: x3 + x98 + x111 + x129 <= 1
 clq561: x13 + x27 + x144 <= 1
 clq562: x19 + x25 + x93 <= 1
 clq563: x12 + x117 + x137 <= 1
 clq564: x61 + x63 + x78 + x143 <= 1
 clq565: x46 + x66 + x98 <= 1
 clq566: x35 + x115 + x127 + x140 <= 1
 clq567: x10 + x100 + x138 + x148 <= 1
 clq568: x36 + x70 + x80 + x96 <= 1
 clq569: x37 + x101 + x125 + x146 <= 1
 clq570: x4 + x81 + x93 + x101 <= 1
 clq571: x53 + x94 + x98 <= 1
 clq572: x71 + x83 + x131 <= 1
 clq573: x73 + x99 + x135 <= 1
 clq574: x34 + x80 + x139 <= 1
 clq575: x8 + x36 + x129 <= 1
 clq576: x42 + x44 + x48 <= 1
 clq577: x53 + x92 + x122 <= 1
 clq578: x13 + x61 + x136 + x143 <= 1
 clq579: x7 + x83 + x135 <= 1
 clq580: x59 + x78 + x95 + x113 <= 1
 clq581: x35 + x39 + x70 + x90 <= 1
 clq582: x1 + x47 + x94 + x119 <= 1
 clq583: x16 + x34 + x118 + x144 <= 1
 clq584: x20 + x139 + x140 <= 1
 clq585: x48 + x51 + x147 <= 1
 clq586: x28 + x29 + x65 + x113 <= 1
 clq587: x93 + x116 + x147 <= 1
 clq588: x91 + x143 + x144 <= 1
 clq589: x5 + x54 + x122 <= 1
 clq590: x80 + x85 + x93 <= 1
 clq591: x3 + x62 + x63 <= 1
 clq592: x28 + x36 + x42 <= 1
 clq593: x61 + x69 + x100 + x106 <= 1
 clq594: x77 + x105 + x111 + x118 <= 1
 clq595: x28 + x145 + x149 <= 1
 clq596: x49 + x130 + x143 <= 1
 clq597: x33 + x59 + x112 + x138 <= 1
 clq598: x58 + x101 + x128 + x140 <= 1
 clq599: x66 + x90 + x139 <= 1
 clq600: x32 + x108 + x126 <= 1
 clq601: x82 + x121 + x138 <= 1
 clq602: x35 + x39 + x115 + x126 <= 1
 clq603: x79 + x100 + x119 + x121 <= 1
 clq604: x47 + x69 + x114 <= 1
 clq605: x40 + x94 + x120 + x130 <= 1
 clq606: x30 + x34 + x104 + x129 + x132 <= 1
 clq607: x18 + x66 + x101 + x109 <= 1
 clq608: x65 + x86 + x96 <= 1
 clq609: x65 + x69 + x116 + x143 <= 1
 clq610: x81 + x129 + x132 <= 1
 clq611: x29 + x31 + x32 + x106 <= 1
 clq612: x41 + x96 + x126 <= 1
 clq613: x66 + x69 + x90 + x98 <= 1
 clq614: x7 + x66 + x90 + x103 <= 1
 clq615: x23 + x39 + x90 <= 1
 clq616: x33 + x69 + x92 <= 1
 clq617: x21 + x43 + x60 + x80 <= 1
 clq618: x7 + x10 + x88 + x121 <= 1
 clq619: x75 + x97 + x146 <= 1
 clq620: x28 + x106 + x117 <= 1
 clq621: x4 + x34 + x74 + x87 <= 1
 clq622: x58 + x90 + x143 <= 1
 clq623: x20 + x33 + x56 + x58 <= 1
 clq624: x13 + x136 + x146 <= 1
 clq625: x31 + x56 + x63 + x124 <= 1
 clq626: x57 + x73 + x98 <= 1
 clq627: x30 + x97 + x118 <= 1
 clq628: x1 + x33 + x114 <= 1
 clq629: x20 + x58 + x101 + x140 <= 1
 clq630: x22 + x36 + x73 + x122 <= 1
 clq631: x45 + x54 + x55 <= 1
 clq632: x40 + x69 + x140 <= 1
 clq633: x105 + x107 + x126 <= 1
 clq634: x53 + x83 + x97 + x118 <= 1
 clq635: x20 + x51 + x83 + x113 <= 1
 clq636: x50 + x68 + x114 <= 1
 clq637: x13 + x76 + x140 + x144 <= 1
 clq638: x24 + x32 + x84 + x139 <= 1
 clq639: x59 + x82 + x106 + x133 <= 1
 clq640: x34 + x103 + x118 <= 1
 clq641: x29 + x31 + x44 + x71 + x121 <= 1
 clq642: x102 + x111 + x121 <= 1
 clq643: x78 + x115 + x127 + x143 <= 1
 clq644: x50 + x61 + x100 + x119 <= 1
 clq645: x7 + x25 + x62 + x149 <= 1
 clq646: x100 + x105 + x120 <= 1
 clq647: x11 + x141 <= 1
 clq648: x14 + x63 + x75 <= 1
 clq649: x11 + x14 + x24 <= 1
 clq650: x29 + x77 + x132 <= 1
 clq651: x51 + x136 + x148 <= 1
 clq652: x42 + x44 + x88 <= 1
 clq653: x33 + x40 + x50 + x69 <= 1
 clq654: x53 + x68 + x86 + x104 + x121 <= 1
 clq655: x52 + x89 + x116 + x129 <= 1
 clq656: x32 + x37 + x129 <= 1
 clq657: x1 + x87 + x119 + x138 <= 1
 clq658: x24 + x68 + x101 + x140 <= 1
 clq659: x35 + x107 + x133 <= 1
 clq660: x50 + x63 + x131 + x142 <= 1
 clq661: x8 + x71 + x75 <= 1
 clq662: x32 + x72 + x139 <= 1
 clq663: x64 + x99 + x135 <= 1
 clq664: x63 + x78 + x80 <= 1
 clq665: x14 + x49 + x98 <= 1
 clq666: x55 + x57 + x111 + x134 <= 1
 clq667: x77 + x79 + x149 + x150 <= 1
 clq668: x19 + x34 + x60 + x118 <= 1
 clq669: x35 + x59 + x113 + x133 <= 1
 clq670: x33 + x65 + x77 + x118 <= 1
 clq671: x34 + x88 + x136 <= 1
 clq672: x8 + x10 + x138 <= 1
 clq673: x37 + x83 + x130 <= 1
 clq674: x25 + x49 + x126 <= 1
 clq675: x39 + x72 + x82 <= 1
 clq676: x14 + x24 + x45 <= 1
 clq677: x58 + x143 + x145 <= 1
 clq678: x9 + x17 + x102 <= 1
 clq679: x4 + x75 + x146 <= 1
 clq680: x30 + x40 + x67 + x74 <= 1
 clq681: x77 + x86 + x138 <= 1
 clq682: x33 + x44 + x56 + x124 <= 1
 clq683: x85 + x97 + x106 + x145 <= 1
 clq684: x95 + x100 + x138 + x148 <= 1
 clq685: x15 + x92 <= 1
 clq686: x31 + x116 + x121 <= 1
 clq687: x4 + x52 + x111 <= 1
 clq688: x8 + x36 + x84 + x130 <= 1
 clq689: x90 + x106 + x141 + x143 <= 1
 clq690: x10 + x41 + x150 <= 1
 clq691: x15 + x67 + x72 + x145 <= 1
 clq692: x2 + x113 + x134 <= 1
 clq693: x89 + x115 + x129 <= 1
 clq694: x12 + x72 + x118 <= 1
 clq695: x131 + x134 + x136 + x142 <= 1
 clq696: x1 + x5 + x108 + x110 <= 1
 clq697: x65 + x116 + x123 + x143 <= 1
 clq698: x51 + x81 + x131 + x140 <= 1
 clq699: x45 + x105 + x115 <= 1
 clq700: x24 + x91 + x99 + x107 <= 1
 clq701: x25 + x49 + x143 <= 1
 clq702: x32 + x89 + x129 <= 1
 clq703: x21 + x36 + x42 <= 1
 clq704: x3 + x52 + x65 + x116 <= 1
 clq705: x24 + x61 + x82 + x102 <= 1
 clq706: x60 + x76 + x77 <= 1
 clq707: x1 + x87 + x117 <= 1
 clq708: x11 + x33 + x75 <= 1
 clq709: x2 + x30 + x147 <= 1
 clq710: x76 + x91 + x144 <= 1
 clq711: x15 + x71 + x121 <= 1
 clq712: x30 + x97 + x143 <= 1
 clq713: x23 + x118 + x126 + x130 <= 1
 clq714: x85 + x97 + x114 <= 1
 clq715: x5 + x8 + x89 + x129 <= 1
 clq716: x2 + x8 + x76 + x84 <= 1
 clq717: x13 + x70 + x121 + x125 <= 1
 clq718: x45 + x52 + x137 <= 1
 clq719: x43 + x88 + x136 <= 1
 clq720: x11 + x24 + x66 + x139 <= 1
 clq721: x70 + x96 + x108 <= 1
 clq722: x69 + x91 + x143 <= 1
 clq723: x41 + x97 + x109 + x117 <= 1
 clq724: x40 + x74 + x107 <= 1
 clq725: x9 + x59 + x89 <= 1
 clq726: x28 + x108 + x113 <= 1
 clq727: x69 + x106 + x147 <= 1
 clq728: x41 + x97 + x126 + x130 <= 1
 clq729: x12 + x35 + x59 + x113 <= 1
 clq730: x95 + x131 + x136 <= 1
 clq731: x72 + x115 + x128 <= 1
 clq732: x13 + x134 + x136 <= 1
 clq733: x85 + x96 + x102 <= 1
 clq734: x3 + x73 + x98 <= 1
 clq735: x108 + x126 + x130 <= 1
 clq736: x86 + x91 + x138 <= 1
 clq737: x30 + x92 + x133 <= 1
 clq738: x47 + x63 + x116 <= 1
 clq739: x5 + x96 + x108 + x122 <= 1
 clq740: x39 + x63 + x86 + x88 <= 1
 clq741: x45 + x50 + x69 <= 1
 clq742: x41 + x87 + x131 <= 1
 clq743: x13 + x125 + x134 + x140 <= 1
 clq744: x16 + x115 + x128 + x133 <= 1
 clq745: x15 + x66 + x103 <= 1
 clq746: x7 + x25 + x73 + x80 <= 1
 clq747: x10 + x112 + x147 <= 1
 clq748: x46 + x63 + x86 + x87 <= 1
 clq749: x52 + x89 + x105 <= 1
 clq750: x107 + x131 + x149 <= 1
 clq751: x112 + x137 + x147 <= 1
 clq752: x20 + x41 + x83 + x109 <= 1
 clq753: x12 + x44 + x142 <= 1
 clq754: x3 + x23 + x90 <= 1
 clq755: x51 + x92 + x113 <= 1
 clq756: x21 + x54 + x116 <= 1
 clq757: x67 + x80 + x94 + x137 <= 1
 clq758: x16 + x107 + x133 <= 1
 clq759: x85 + x123 + x149 <= 1
 clq760: x80 + x117 + x137 <= 1
 clq761: x2 + x24 + x45 + x130 <= 1
 clq762: x35 + x119 + x131 <= 1
 clq763: x30 + x132 + x141 <= 1
 clq764: x33 + x39 + x72 <= 1
 clq765: x32 + x110 + x120 <= 1
 clq766: x13 + x61 + x64 + x100 <= 1
 clq767: x35 + x97 + x109 + x140 <= 1
 clq768: x12 + x37 + x129 <= 1
 clq769: x58 + x81 + x92 + x101 <= 1
 clq770: x48 + x53 + x124 <= 1
 clq771: x83 + x105 + x107 + x120 <= 1
 clq772: x39 + x61 + x82 + x110 <= 1
 clq773: x58 + x79 + x101 + x119 <= 1
 clq774: x14 + x73 + x75 + x146 <= 1
 clq775: x60 + x80 + x115 <= 1
 clq776: x9 + x32 + x89 <= 1
 clq777: x88 + x112 + x130 <= 1
 clq778: x30 + x39 + x82 <= 1
 clq779: x107 + x110 + x116 <= 1
 clq780: x79 + x131 + x146 + x149 <= 1
 clq781: x38 + x83 + x104 + x125 <= 1
 clq782: x10 + x27 + x118 + x144 <= 1
 clq783: x28 + x29 + x45 + x65 <= 1
 clq784: x50 + x58 + x81 + x108 <= 1
 clq785: x15 + x107 + x116 <= 1
 clq786: x21 + x31 + x73 + x80 + x150 <= 1
 clq787: x120 + x124 + x144 + x149 <= 1
 clq788: x23 + x26 + x57 <= 1
 clq789: x40 + x68 + x94 + x140 <= 1
 clq790: x13 + x73 + x74 + x140 <= 1
 clq791: x4 + x17 + x18 + x90 <= 1
 clq792: x45 + x105 + x107 <= 1
 clq793: x32 + x106 + x133 <= 1
 clq794: x85 + x96 + x101 <= 1
 clq795: x9 + x25 + x65 + x148 <= 1
 clq796: x41 + x82 + x96 + x102 <= 1
 clq797: x97 + x109 + x146 <= 1
 clq798: x45 + x62 + x69 <= 1
 clq799: x71 + x86 + x150 <= 1
 clq800: x77 + x79 + x122 + x150 <= 1
 clq801: x21 + x46 + x66 <= 1
 clq802: x69 + x90 + x138 <= 1
 clq803: x1 + x31 + x106 + x150 <= 1
 clq804: x70 + x88 + x100 + x121 <= 1
 clq805: x41 + x44 + x56 + x88 <= 1
 clq806: x106 + x141 + x143 + x145 <= 1
 clq807: x81 + x92 + x133 <= 1
 clq808: x37 + x100 + x122 <= 1
 clq809: x70 + x125 + x142 <= 1
 clq810: x9 + x65 + x99 + x144 <= 1
 clq811: x42 + x95 + x104 <= 1
 clq812: x61 + x129 + x142 <= 1
 clq813: x7 + x27 + x88 + x114 <= 1
 clq814: x29 + x30 + x34 + x55 <= 1
 clq815: x78 + x83 + x109 <= 1
 clq816: x48 + x51 + x126 <= 1
 clq817: x44 + x71 + x86 + x88 + x121 <= 1
 clq818: x55 + x103 + x142 <= 1
 clq819: x1 + x67 + x89 <= 1
 clq820: x21 + x60 + x95 + x144 <= 1
 clq821: x27 + x45 + x75 <= 1
 clq822: x23 + x24 + x45 + x88 + x130 <= 1
 clq823: x5 + x13 + x15 <= 1
 clq824: x32 + x42 + x54 + x88 <= 1
 clq825: x46 + x76 + x94 <= 1
 clq826: x10 + x18 + x61 + x92 <= 1
 clq827: x33 + x50 + x118 + x131 <= 1
 clq828: x16 + x69 + x83 + x104 <= 1
 clq829: x108 + x147 <= 1
 clq830: x57 + x94 + x98 + x111 <= 1
 clq831: x82 + x105 + x120 <= 1
 clq832: x71 + x83 + x97 <= 1
 clq833: x25 + x37 + x46 + x122 <= 1
 clq834: x11 + x14 + x29 + x98 <= 1
 clq835: x38 + x83 + x109 <= 1
 clq836: x29 + x44 + x65 + x121 <= 1
 clq837: x13 + x33 + x93 <= 1
 clq838: x70 + x96 + x101 <= 1
 clq839: x9 + x72 + x91 <= 1
 clq840: x24 + x37 + x100 + x148 <= 1
 clq841: x103 + x116 + x123 <= 1
 clq842: x57 + x89 + x104 + x134 <= 1
 clq843: x64 + x65 + x143 <= 1
 clq844: x67 + x108 + x130 <= 1
 clq845: x39 + x54 + x61 + x85 <= 1
 clq846: x50 + x72 + x118 + x146 <= 1
 clq847: x9 + x115 + x132 + x136 <= 1
 clq848: x18 + x29 + x61 + x136 <= 1
 clq849: x22 + x47 + x63 + x78 <= 1
 clq850: x34 + x44 + x65 + x148 <= 1
 clq851: x49 + x82 + x120 + x142 <= 1
 clq852: x24 + x68 + x77 + x84 <= 1
 clq853: x18 + x90 + x141 <= 1
 clq854: x15 + x43 + x135 <= 1
 clq855: x61 + x64 + x102 + x135 <= 1
 clq856: x8 + x77 + x114 + x132 <= 1
 clq857: x1 + x23 + x102 <= 1
 clq858: x25 + x127 + x143 <= 1
 clq859: x40 + x116 + x129 <= 1
 clq860: x12 + x13 + x137 <= 1
 clq861: x12 + x42 + x67 + x137 <= 1
 clq862: x2 + x116 + x123 + x147 <= 1
 clq863: x5 + x85 + x86 + x96 <= 1
 clq864: x25 + x52 + x72 + x145 <= 1
 clq865: x7 + x66 + x67 + x76 <= 1
 clq866: x41 + x47 + x102 + x135 <= 1
 clq867: x71 + x83 + x86 <= 1
 clq868: x37 + x86 + x146 <= 1
 clq869: x17 + x100 + x149 <= 1
 clq870: x50 + x141 + x146 <= 1
 clq871: x100 + x127 + x132 <= 1
 clq872: x24 + x51 + x65 + x113 <= 1
 clq873: x82 + x97 + x106 + x145 <= 1
 clq874: x24 + x53 + x68 + x101 <= 1
 clq875: x49 + x50 + x57 + x148 <= 1
 clq876: x25 + x54 + x55 + x122 <= 1
 clq877: x23 + x53 + x89 + x122 <= 1
 clq878: x19 + x83 + x104 + x132 <= 1
 clq879: x49 + x56 + x77 + x110 <= 1
 clq880: x91 + x96 + x123 <= 1
 clq881: x35 + x59 + x75 + x148 <= 1
 clq882: x55 + x80 + x115 <= 1
 clq883: x13 + x15 + x22 + x121 <= 1
 clq884: x29 + x77 + x106 + x150 <= 1
 clq885: x25 + x54 + x73 + x99 <= 1
 clq886: x26 + x49 + x57 + x104 <= 1
 clq887: x89 + x110 + x116 + x134 <= 1
 clq888: x2 + x70 + x74 + x145 <= 1
 clq889: x49 + x72 + x101 <= 1
 clq890: x1 + x67 + x106 + x145 <= 1
 clq891: x39 + x63 + x86 + x91 <= 1
 clq892: x6 + x123 + x136 <= 1
 clq893: x7 + x26 + x67 <= 1
 clq894: x50 + x76 + x148 <= 1
 clq895: x36 + x53 + x124 <= 1
 clq896: x48 + x124 + x144 <= 1
 clq897: x38 + x54 + x65 <= 1
 clq898: x33 + x85 + x124 <= 1
 clq899: x28 + x37 + x149 <= 1
 clq900: x59 + x89 + x123 <= 1
 clq901: x13 + x69 + x126 <= 1
 clq902: x1 + x83 + x108 + x113 <= 1
 clq903: x2 + x4 + x84 + x123 <= 1
 clq904: x30 + x92 + x127 + x143 <= 1
 clq905: x28 + x88 + x109 <= 1
 clq906: x36 + x53 + x96 + x122 <= 1
Bounds
 0 <= x1 <= 1
 0 <= x2 <= 1
 0 <= x3 <= 1
 0 <= x4 <= 1
 0 <= x5 <= 1
 0 <= x6 <= 1
 0 <= x7 <= 1
 0 <= x8 <= 1
 0 <= x9 <= 1
 0 <= x10 <= 1
 0 <= x11 <= 1
 0 <= x12 <= 1
 0 <= x13 <= 1
 0 <= x14 <= 1
 0 <= x15 <= 1
 0 <= x16 <= 1
 0 <= x17 <= 1
 0 <= x18 <= 1
 0 <= x19 <= 1
 0 <= x20 <= 1
 0 <= x21 <= 1
 0 <= x22 <= 1
 0 <= x23 <= 1
 0 <= x24 <= 1
 0 <= x25 <= 1
 0 <= x26 <= 1
 0 <= x27 <= 1
 0 <= x28 <= 1
 0 <= x29 <= 1
 0 <= x30 <= 1
 0 <= x31 <= 1
 0 <= x32 <= 1
 0 <= x33 <= 1
 0 <= x34 <= 1
 0 <= x35 <= 1
 0 <= x36 <= 1
 0 <= x37 <= 1
 0 <= x38 <= 1
 0 <= x39 <= 1
 0 <= x40 <= 1
 0 <= x41 <= 1
 0 <= x42 <= 1
 0 <= x43 <= 1
 0 <= x44 <= 1
 0 <= x45 <= 1
 0 <= x46 <= 1
 0 <= x47 <= 1
 0 <= x48 <= 1
 0 <= x49 <= 1
 0 <= x50 <= 1
 0 <= x51 <= 1
 0 <= x52 <= 1
 0 <= x53 <= 1
 0 <= x54 <= 1
 0 <= x55 <= 1
 0 <= x56 <= 1
 0 <= x57 <= 1
 0 <= x58 <= 1
 0 <= x59 <= 1
 0 <= x60 <= 1
 0 <= x61 <= 1
 0 <= x62 <= 1
 0 <= x63 <= 1
 0 <= x64 <= 1
 0 <= x65 <= 1
 0 <= x66 <= 1
 0 <= x67 <= 1
 0 <= x68 <= 1
 0 <= x69 <= 1
 0 <= x70 <= 1
 0 <= x71 <= 1
 0 <= x72 <= 1
 0 <= x73 <= 1
 0 <= x74 <= 1
 0 <= x75 <= 1
 0 <= x76 <= 1
 0 <= x77 <= 1
 0 <= x78 <= 1
 0 <= x79 <= 1
 0 <= x80 <= 1
 0 <= x81 <= 1
 0 <= x82 <= 1
 0 <= x83 <= 1
 0 <= x84 <= 1
 0 <= x85 <= 1
 0 <= x86 <= 1
 0 <= x87 <= 1
 0 <= x88 <= 1
 0 <= x89 <= 1
 0 <= x90 <= 1
 0 <= x91 <= 1
 0 <= x92 <= 1
 0 <= x93 <= 1
 0 <= x94 <= 1
 0 <= x95 <= 1
 0 <= x96 <= 1
 0 <= x97 <= 1
 0 <= x98 <= 1
 0 <= x99 <= 1
 0 <= x100 <= 1
 0 <= x101 <= 1
 0 <= x102 <= 1
 0 <= x103 <= 1
 0 <= x104 <= 1
 0 <= x105 <= 1
 0 <= x106 <= 1
 0 <= x107 <= 1
 0 <= x108 <= 1
 0 <= x109 <= 1
 0 <= x110 <= 1
 0 <= x111 <= 1
 0 <= x112 <= 1
 0 <= x113 <= 1
 0 <= x114 <= 1
 0 <= x115 <= 1
 0 <= x116 <= 1
 0 <= x117 <= 1
 0 <= x118 <= 1
 0 <= x119 <= 1
 0 <= x120 <= 1
 0 <= x121 <= 1
 0 <= x122 <= 1
 0 <= x123 <= 1
 0 <= x124 <= 1
 0 <= x125 <= 1
 0 <= x126 <= 1
 0 <= x127 <= 1
 0 <= x128 <= 1
 0 <= x129 <= 1
 0 <= x130 <= 1
 0 <= x131 <= 1
 0 <= x132 <= 1
 0 <= x133 <= 1
 0 <= x134 <= 1
 0 <= x135 <= 1
 0 <= x136 <= 1
 0 <= x137 <= 1
 0 <= x138 <= 1
 0 <= x139 <= 1
 0 <= x140 <= 1
 0 <= x141 <= 1
 0 <= x142 <= 1
 0 <= x143 <= 1
 0 <= x144 <= 1
 0 <= x145 <= 1
 0 <= x146 <= 1
 0 <= x147 <= 1
 0 <= x148 <= 1
 0 <= x149 <= 1
 0 <= x150 <= 1
Binaries
 x1  x2  x3  x4  x5  x6  x7  x8  x9  x10  x11  x12  x13  x14  x15  x16  x17 
 x18  x19  x20  x21  x22  x23  x24  x25  x26  x27  x28  x29  x30  x31  x32 
 x33  x34  x35  x36  x37  x38  x39  x40  x41  x42  x43  x44  x45  x46  x47 
 x48  x49  x50  x51  x52  x53  x54  x55  x56  x57  x58  x59  x60  x61  x62 
 x63  x64  x65  x66  x67  x68  x69  x70  x71  x72  x73  x74  x75  x76  x77 
 x78  x79  x80  x81  x82  x83  x84  x85  x86  x87  x88  x89  x90  x91  x92 
 x93  x94  x95  x96  x97  x98  x99  x100  x101  x102  x103  x104  x105  x106 
 x107  x108  x109  x110  x111  x112  x113  x114  x115  x116  x117  x118  x119 
 x120  x121  x122  x123  x124  x125  x126  x127  x128  x129  x130  x131  x132 
 x133  x134  x135  x136  x137  x138  x139  x140  x141  x142  x143  x144  x145 
 x146  x147  x148  x149  x150 
End
